unsat
(a10_8$2@ a10_5$2@ a9_1$1@ a8_10$1@ a6_1$1@ a5_9$3@ a5_8$2@ a3_10$1@ a1_2$0@ a1_1$3@ obs-10-6 obs-10-3 obs-9-7 obs-8-4 obs-8-3 obs-7-9 obs-7-3 obs-7-2 obs-7-1 obs-6-10 obs-6-7 obs-5-6 obs-5-3 obs-4-7 obs-4-6 obs-4-3 obs-4-1 obs-2-8 obs-2-4 obs-2-3 obs-1-4 obs-1-8)
(error "line 417774 column 10: model is not available")
